certificates/rado_a15_c280_N42.cnf
c Rad2 upper bound instance: x1 + 15*x2 - x3 = 280, interval [1,42]
p cnf 42 234
1 6 19 0
-1 -6 -19 0
1 20 21 0
-1 -20 -21 0
1 21 36 0
-1 -21 -36 0
2 7 19 0
-2 -7 -19 0
2 20 22 0
-2 -20 -22 0
2 21 37 0
-2 -21 -37 0
3 8 19 0
-3 -8 -19 0
3 20 23 0
-3 -20 -23 0
3 21 38 0
-3 -21 -38 0
4 9 19 0
-4 -9 -19 0
4 20 24 0
-4 -20 -24 0
4 21 39 0
-4 -21 -39 0
5 10 19 0
-5 -10 -19 0
5 20 25 0
-5 -20 -25 0
5 21 40 0
-5 -21 -40 0
6 11 19 0
-6 -11 -19 0
6 20 26 0
-6 -20 -26 0
6 21 41 0
-6 -21 -41 0
7 12 19 0
-7 -12 -19 0
7 20 27 0
-7 -20 -27 0
7 21 42 0
-7 -21 -42 0
8 13 19 0
-8 -13 -19 0
8 20 28 0
-8 -20 -28 0
9 14 19 0
-9 -14 -19 0
9 20 29 0
-9 -20 -29 0
10 15 19 0
-10 -15 -19 0
10 20 30 0
-10 -20 -30 0
1 11 18 0
-1 -11 -18 0
11 16 19 0
-11 -16 -19 0
11 20 31 0
-11 -20 -31 0
2 12 18 0
-2 -12 -18 0
12 17 19 0
-12 -17 -19 0
12 20 32 0
-12 -20 -32 0
3 13 18 0
-3 -13 -18 0
13 18 19 0
-13 -18 -19 0
13 20 33 0
-13 -20 -33 0
4 14 18 0
-4 -14 -18 0
14 19 0
-14 -19 0
14 20 34 0
-14 -20 -34 0
5 15 18 0
-5 -15 -18 0
15 19 20 0
-15 -19 -20 0
15 20 35 0
-15 -20 -35 0
6 16 18 0
-6 -16 -18 0
16 19 21 0
-16 -19 -21 0
16 20 36 0
-16 -20 -36 0
7 17 18 0
-7 -17 -18 0
17 19 22 0
-17 -19 -22 0
17 20 37 0
-17 -20 -37 0
8 18 0
-8 -18 0
18 19 23 0
-18 -19 -23 0
18 20 38 0
-18 -20 -38 0
9 18 19 0
-9 -18 -19 0
19 24 0
-19 -24 0
19 20 39 0
-19 -20 -39 0
10 18 20 0
-10 -18 -20 0
19 20 25 0
-19 -20 -25 0
20 40 0
-20 -40 0
11 18 21 0
-11 -18 -21 0
19 21 26 0
-19 -21 -26 0
20 21 41 0
-20 -21 -41 0
12 18 22 0
-12 -18 -22 0
19 22 27 0
-19 -22 -27 0
20 22 42 0
-20 -22 -42 0
13 18 23 0
-13 -18 -23 0
19 23 28 0
-19 -23 -28 0
14 18 24 0
-14 -18 -24 0
19 24 29 0
-19 -24 -29 0
15 18 25 0
-15 -18 -25 0
19 25 30 0
-19 -25 -30 0
1 17 26 0
-1 -17 -26 0
16 18 26 0
-16 -18 -26 0
19 26 31 0
-19 -26 -31 0
2 17 27 0
-2 -17 -27 0
17 18 27 0
-17 -18 -27 0
19 27 32 0
-19 -27 -32 0
3 17 28 0
-3 -17 -28 0
18 28 0
-18 -28 0
19 28 33 0
-19 -28 -33 0
4 17 29 0
-4 -17 -29 0
18 19 29 0
-18 -19 -29 0
19 29 34 0
-19 -29 -34 0
5 17 30 0
-5 -17 -30 0
18 20 30 0
-18 -20 -30 0
19 30 35 0
-19 -30 -35 0
6 17 31 0
-6 -17 -31 0
18 21 31 0
-18 -21 -31 0
19 31 36 0
-19 -31 -36 0
7 17 32 0
-7 -17 -32 0
18 22 32 0
-18 -22 -32 0
19 32 37 0
-19 -32 -37 0
8 17 33 0
-8 -17 -33 0
18 23 33 0
-18 -23 -33 0
19 33 38 0
-19 -33 -38 0
9 17 34 0
-9 -17 -34 0
18 24 34 0
-18 -24 -34 0
19 34 39 0
-19 -34 -39 0
10 17 35 0
-10 -17 -35 0
18 25 35 0
-18 -25 -35 0
19 35 40 0
-19 -35 -40 0
11 17 36 0
-11 -17 -36 0
18 26 36 0
-18 -26 -36 0
19 36 41 0
-19 -36 -41 0
12 17 37 0
-12 -17 -37 0
18 27 37 0
-18 -27 -37 0
19 37 42 0
-19 -37 -42 0
13 17 38 0
-13 -17 -38 0
18 28 38 0
-18 -28 -38 0
14 17 39 0
-14 -17 -39 0
18 29 39 0
-18 -29 -39 0
15 17 40 0
-15 -17 -40 0
18 30 40 0
-18 -30 -40 0
1 16 41 0
-1 -16 -41 0
16 17 41 0
-16 -17 -41 0
18 31 41 0
-18 -31 -41 0
2 16 42 0
-2 -16 -42 0
17 42 0
-17 -42 0
18 32 42 0
-18 -32 -42 0
