certificates/rado_a15_c280_N42.drat
20 -41 -42 0
-20 -42 0
-42 0
17 0
-40 0
20 0
-37 0
19 0
-14 0
-24 0
-12 0
-22 0
-39 0
-25 0
-15 0
18 0
-13 0
-8 0
-23 0
-9 0
-10 0
-28 0
-29 0
-7 0
-27 0
-38 0
-30 0
21 0
-26 0
-1 0
-16 0
-31 0
-11 0
41 0
0
